20 5
52 74 50 61 57 21 32 79 22 21 78 79 15 85 21 68 87 8 31 18 
85 77 63 36 73 46 3 52 59 68 20 14 35 98 11 3 28 68 28 22 
39 26 74 34 48 45 56 4 56 86 56 57 81 72 30 15 10 90 99 15 
44 84 72 89 85 70 29 67 50 59 41 45 31 8 39 43 14 79 24 17 
78 63 54 11 54 22 21 65 96 92 64 12 41 90 23 8 35 97 68 28 
